20
47	324	138	64	72
38	478	479	74	41
46	292	467	33	72
48	403	364	51	19
37	359	110	38	30
24	112	438	69	68
41	166	350	57	62
19	516	335	74	91
22	457	158	70	77
43	264	382	41	16
16	151	308	7	31
38	132	89	21	42
3	518	290	2	75
2	29	383	94	83
32	225	190	41	3
17	199	272	9	28
46	379	242	8	10
20	251	91	52	86
9	445	479	43	30
30	79	397	78	33
